(set-info :smt-lib-version 2.6)
(set-logic AUFBVFPDTNIRA)
(set-info :source |
Generated by: AdaCore
Generated on: 2020-03-06
Generator: SPARK
Application: Program verification for Ada
Target solver: CVC4
|)
(set-info :license "https://creativecommons.org/licenses/by/4.0/")
(set-info :category "industrial")
(set-info :status unknown)
;;; generated by SMT-LIB2 driver
;;; SMT-LIB2 driver: bit-vectors, common part
;;; SMT-LIB2: integer arithmetic
(declare-sort string 0)

(declare-datatypes ((tuple0 0))
(((Tuple0))))
(declare-sort us_private 0)

(declare-fun private__bool_eq (us_private us_private) Bool)

(declare-const us_null_ext__ us_private)

(declare-sort us_type_of_heap 0)

(declare-datatypes ((us_type_of_heap__ref 0))
(((us_type_of_heap__refqtmk (us_type_of_heap__content us_type_of_heap)))))
(declare-sort us_image 0)

(declare-datatypes ((int__ref 0))
(((int__refqtmk (int__content Int)))))
(declare-datatypes ((bool__ref 0))
(((bool__refqtmk (bool__content Bool)))))
(declare-datatypes ((us_fixed__ref 0))
(((us_fixed__refqtmk (us_fixed__content Int)))))
(declare-datatypes ((real__ref 0))
(((real__refqtmk (real__content Real)))))
(declare-datatypes ((us_private__ref 0))
(((us_private__refqtmk (us_private__content us_private)))))
(define-fun int__ref___projection ((a int__ref)) Int (int__content a))

(define-fun us_fixed__ref___projection ((a us_fixed__ref)) Int (us_fixed__content
                                                               a))

(define-fun bool__ref___projection ((a bool__ref)) Bool (bool__content a))

(define-fun real__ref___projection ((a real__ref)) Real (real__content a))

(define-fun us_private__ref___projection ((a us_private__ref)) us_private 
  (us_private__content a))

(define-fun min ((x Int) (y Int)) Int (ite (<= x y) x y))

(define-fun max ((x Int) (y Int)) Int (ite (<= x y) y x))

;; Min_r
  (assert (forall ((x Int) (y Int)) (=> (<= y x) (= (min x y) y))))

;; Max_l
  (assert (forall ((x Int) (y Int)) (=> (<= y x) (= (max x y) x))))

;; Min_comm
  (assert (forall ((x Int) (y Int)) (= (min x y) (min y x))))

;; Max_comm
  (assert (forall ((x Int) (y Int)) (= (max x y) (max y x))))

;; Min_assoc
  (assert
  (forall ((x Int) (y Int) (z Int)) (= (min (min x y) z) (min x (min y z)))))

;; Max_assoc
  (assert
  (forall ((x Int) (y Int) (z Int)) (= (max (max x y) z) (max x (max y z)))))

(declare-sort integer 0)

(declare-fun integerqtint (integer) Int)

;; integer'axiom
  (assert
  (forall ((i integer))
  (and (<= (- 2147483648) (integerqtint i)) (<= (integerqtint i) 2147483647))))

(define-fun in_range ((x Int)) Bool (and (<= (- 2147483648) x)
                                    (<= x 2147483647)))

(declare-fun attr__ATTRIBUTE_IMAGE (Int) us_image)

(declare-fun attr__ATTRIBUTE_VALUE__pre_check (us_image) Bool)

(declare-fun attr__ATTRIBUTE_VALUE (us_image) Int)

(declare-fun user_eq (integer integer) Bool)

(declare-const dummy integer)

(declare-datatypes ((integer__ref 0))
(((integer__refqtmk (integer__content integer)))))
(define-fun integer__ref_integer__content__projection ((a integer__ref)) integer 
  (integer__content a))

(define-fun dynamic_invariant ((temp___expr_18 Int) (temp___is_init_14 Bool)
  (temp___skip_constant_15 Bool) (temp___do_toplevel_16 Bool)
  (temp___do_typ_inv_17 Bool)) Bool (=>
                                    (or (= temp___is_init_14 true)
                                    (<= (- 2147483648) 2147483647)) (in_range
                                    temp___expr_18)))

(declare-const attr__ATTRIBUTE_ADDRESS Int)

(declare-const attr__ATTRIBUTE_ADDRESS1 Int)

(declare-const x Int)

(declare-const attr__ATTRIBUTE_ADDRESS2 Int)

(declare-const y Int)

(declare-const attr__ATTRIBUTE_ADDRESS3 Int)

(declare-sort s 0)

(declare-fun sqtint (s) Int)

;; s'axiom
  (assert (forall ((i s)) (and (<= 1 (sqtint i)) (<= (sqtint i) 127))))

(define-fun in_range1 ((x1 Int)) Bool (and (<= 1 x1) (<= x1 127)))

(declare-fun attr__ATTRIBUTE_IMAGE1 (Int) us_image)

(declare-fun attr__ATTRIBUTE_VALUE__pre_check1 (us_image) Bool)

(declare-fun attr__ATTRIBUTE_VALUE1 (us_image) Int)

(declare-fun user_eq1 (s s) Bool)

(declare-const dummy1 s)

(declare-datatypes ((s__ref 0))
(((s__refqtmk (s__content s)))))
(define-fun s__ref_s__content__projection ((a s__ref)) s (s__content a))

(define-fun dynamic_invariant1 ((temp___expr_179 Int)
  (temp___is_init_175 Bool) (temp___skip_constant_176 Bool)
  (temp___do_toplevel_177 Bool)
  (temp___do_typ_inv_178 Bool)) Bool (=>
                                     (or (= temp___is_init_175 true)
                                     (<= 1 127)) (in_range1 temp___expr_179)))

(assert
;; defqtvc
 ;; File "minmax.adb", line 33, characters 0-0
  (not
  (forall ((min1 Int) (max1 Int) (min2 Int) (max2 Int) (min3 Int) (max3 Int))
  (=> (dynamic_invariant min1 false false true true)
  (=> (dynamic_invariant max1 false false true true)
  (=> (dynamic_invariant1 x true false true true)
  (=> (dynamic_invariant1 y true false true true)
  (=> (< x y)
  (=> (= min2 (min x y))
  (=> (= min2 x)
  (=> (= max2 (max x y))
  (=> (= max2 y)
  (=> (= min3 (min x (+ x y)))
  (=> (= min3 x) (=> (= max3 (max (+ x y) y)) (= max3 (+ x y)))))))))))))))))
(check-sat)
